(set-info :smt-lib-version 2.6)
(set-logic QF_BV)
(set-info :source |
 Patrice Godefroid, SAGE (systematic dynamic test generation)
 For more information: http://research.microsoft.com/en-us/um/people/pg/public_psfiles/ndss2008.pdf
|)
(set-info :category "industrial")
(set-info :status sat)
(declare-fun T1_4439 () (_ BitVec 8))
(declare-fun T2_4448 () (_ BitVec 16))
(declare-fun T4_4440 () (_ BitVec 32))
(declare-fun T1_4840 () (_ BitVec 8))
(declare-fun T2_4842 () (_ BitVec 16))
(declare-fun T1_4844 () (_ BitVec 8))
(declare-fun T1_4860 () (_ BitVec 8))
(declare-fun T1_4876 () (_ BitVec 8))
(declare-fun T1_4892 () (_ BitVec 8))
(declare-fun T1_4914 () (_ BitVec 8))
(declare-fun T1_4842 () (_ BitVec 8))
(declare-fun T1_4843 () (_ BitVec 8))
(declare-fun T1_4448 () (_ BitVec 8))
(declare-fun T1_4449 () (_ BitVec 8))
(declare-fun T1_4440 () (_ BitVec 8))
(declare-fun T1_4441 () (_ BitVec 8))
(declare-fun T1_4442 () (_ BitVec 8))
(declare-fun T1_4443 () (_ BitVec 8))
(assert (let ((?v_2 ((_ zero_extend 24) T1_4439))) (let ((?v_16 (bvadd ?v_2 (_ bv1 32))) (?v_15 ((_ zero_extend 16) T2_4448))) (let ((?v_14 (bvadd (bvadd ?v_16 (_ bv4267230 32)) ?v_15))) (let ((?v_13 (bvadd ?v_14 (_ bv6 32))) (?v_11 ((_ zero_extend 24) T1_4840))) (let ((?v_12 (bvadd ?v_13 (bvadd ?v_11 (_ bv1 32))))) (let ((?v_8 (bvadd ?v_12 (_ bv2 32))) (?v_9 ((_ zero_extend 16) T2_4842)) (?v_3 ((_ zero_extend 24) T1_4844))) (let ((?v_10 (bvadd ?v_8 ?v_3)) (?v_7 (bvadd ?v_9 (bvsub (_ bv4294967295 32) ?v_3))) (?v_4 ((_ zero_extend 24) T1_4860))) (let ((?v_6 (bvadd ?v_7 (bvsub (_ bv4294967295 32) ?v_4))) (?v_5 ((_ zero_extend 24) T1_4876))) (let ((?v_1 (bvadd ?v_6 (bvsub (_ bv4294967295 32) ?v_5)))) (let ((?v_0 (bvadd ?v_1 (bvsub (_ bv4294967295 32) ((_ zero_extend 24) T1_4892))))) (and true (= T4_4440 (bvor (bvshl (bvor (bvshl (bvor (bvshl ((_ zero_extend 24) T1_4443) (_ bv8 32)) ((_ zero_extend 24) T1_4442)) (_ bv8 32)) ((_ zero_extend 24) T1_4441)) (_ bv8 32)) ((_ zero_extend 24) T1_4440))) (= T2_4448 (bvor (bvshl ((_ zero_extend 8) T1_4449) (_ bv8 16)) ((_ zero_extend 8) T1_4448))) (= T2_4842 (bvor (bvshl ((_ zero_extend 8) T1_4843) (_ bv8 16)) ((_ zero_extend 8) T1_4842))) (bvult (_ bv0 32) (bvsub ?v_2 (_ bv8 32))) (= (bvadd ?v_0 (bvsub (_ bv4294967295 32) ((_ zero_extend 24) T1_4914))) (_ bv0 32)) (not (= ?v_0 (_ bv0 32))) (not (= ?v_1 (_ bv0 32))) (bvule (bvadd (bvadd (bvadd ?v_10 (_ bv1 32)) ?v_4) (_ bv2 32)) (_ bv4268054 32)) (bvule (bvadd ?v_5 (_ bv1 32)) ?v_6) (not (= ?v_6 (_ bv0 32))) (bvule (bvadd ?v_4 (_ bv1 32)) ?v_7) (not (= ?v_7 (_ bv0 32))) (bvule (bvsub (bvadd ?v_8 ?v_9) (_ bv4267208 32)) (_ bv846 32)) (bvule (bvadd ?v_10 (_ bv2 32)) (_ bv4268054 32)) (bvule (bvadd ?v_3 (_ bv1 32)) ?v_9) (not (= ?v_9 (_ bv0 32))) (not (= ?v_11 (_ bv0 32))) (= ?v_11 (_ bv1 32)) (bvule (bvadd ?v_12 (_ bv3 32)) (_ bv4268054 32)) (bvule ?v_8 (_ bv4268054 32)) (bvule (bvadd ?v_13 (_ bv1 32)) (_ bv4268054 32)) (bvule (bvsub ?v_14 (_ bv4267208 32)) (_ bv846 32)) (= T4_4440 ?v_15) (bvule (bvadd (bvadd ?v_16 (_ bv4267228 32)) (_ bv2 32)) (_ bv4268054 32)) (bvule (_ bv8 32) ?v_2) (not (= ?v_2 (_ bv1 32)))))))))))))))
(check-sat)
(exit)
